c colouring generated by benchmark framework
p edge 128 387
v 1 2
v 2 3
v 3 1
v 4 1
v 5 0
v 6 4
v 7 0
v 8 2
v 9 5
v 10 4
v 11 2
v 12 1
v 13 2
v 14 1
v 15 0
v 16 0
v 17 0
v 18 2
v 19 3
v 20 0
v 21 0
v 22 4
v 23 2
v 24 7
v 25 4
v 26 5
v 27 2
v 28 1
v 29 1
v 30 5
v 31 0
v 32 2
v 33 1
v 34 0
v 35 0
v 36 3
v 37 0
v 38 6
v 39 2
v 40 3
v 41 0
v 42 0
v 43 1
v 44 2
v 45 1
v 46 3
v 47 1
v 48 1
v 49 1
v 50 1
v 51 0
v 52 3
v 53 1
v 54 2
v 55 0
v 56 1
v 57 4
v 58 6
v 59 1
v 60 0
v 61 0
v 62 0
v 63 2
v 64 0
v 65 0
v 66 4
v 67 1
v 68 5
v 69 2
v 70 1
v 71 1
v 72 0
v 73 4
v 74 1
v 75 1
v 76 3
v 77 3
v 78 1
v 79 0
v 80 1
v 81 3
v 82 2
v 83 0
v 84 1
v 85 3
v 86 5
v 87 1
v 88 1
v 89 3
v 90 2
v 91 4
v 92 2
v 93 0
v 94 5
v 95 2
v 96 0
v 97 2
v 98 1
v 99 2
v 100 0
v 101 2
v 102 3
v 103 3
v 104 3
v 105 0
v 106 3
v 107 0
v 108 1
v 109 0
v 110 3
v 111 2
v 112 0
v 113 2
v 114 3
v 115 5
v 116 3
v 117 3
v 118 1
v 119 1
v 120 1
v 121 1
v 122 2
v 123 0
v 124 4
v 125 3
v 126 6
v 127 4
v 128 0
